\ENCODING=ISO-8859-1
\Problem name: ilog.cplex

Maximize
 obj: 542 x(0)#0 + 1208 x(1)#1 + 989 x(2)#2 + 1132 x(3)#3 + 857 x(4)#4
      + 764 x(5)#5 + 688 x(6)#6 + 609 x(7)#7 + 751 x(8)#8 + 958 x(9)#9
      + 700 x(10)#10 + 816 x(11)#11 + 520 x(12)#12 + 663 x(13)#13
      + 797 x(14)#14 + 699 x(15)#15 + 744 x(16)#16 + 468 x(17)#17
      + 400 x(18)#18 + 681 x(19)#19 + 551 x(20)#20 + 1077 x(21)#21
      + 748 x(22)#22 + 724 x(23)#23 + 890 x(24)#24 + 708 x(25)#25
      + 739 x(26)#26 + 1000 x(27)#27 + 862 x(28)#28 + 860 x(29)#29
      + 885 x(30)#30 + 626 x(31)#31 + 788 x(32)#32 + 614 x(33)#33
      + 720 x(34)#34 + 1123 x(35)#35 + 647 x(36)#36 + 1073 x(37)#37
      + 494 x(38)#38 + 400 x(39)#39 + 891 x(40)#40 + 1020 x(41)#41
      + 508 x(42)#42 + 389 x(43)#43 + 582 x(44)#44 + 659 x(45)#45
      + 515 x(46)#46 + 510 x(47)#47 + 940 x(48)#48 + 794 x(49)#49
      + 950 x(50)#50 + 414 x(51)#51 + 817 x(52)#52 + 1018 x(53)#53
      + 666 x(54)#54 + 885 x(55)#55 + 678 x(56)#56 + 746 x(57)#57
      + 742 x(58)#58 + 684 x(59)#59 + 624 x(60)#60 + 657 x(61)#61
      + 788 x(62)#62 + 505 x(63)#63 + 649 x(64)#64 + 820 x(65)#65
      + 695 x(66)#66 + 786 x(67)#67 + 723 x(68)#68 + 628 x(69)#69
      + 762 x(70)#70 + 500 x(71)#71 + 754 x(72)#72 + 916 x(73)#73
      + 447 x(74)#74 + 1104 x(75)#75 + 1041 x(76)#76 + 1142 x(77)#77
      + 684 x(78)#78 + 410 x(79)#79 + 533 x(80)#80 + 760 x(81)#81
      + 347 x(82)#82 + 732 x(83)#83 + 626 x(84)#84 + 527 x(85)#85
      + 1056 x(86)#86 + 545 x(87)#87 + 978 x(88)#88 + 720 x(89)#89
      + 561 x(90)#90 + 964 x(91)#91 + 655 x(92)#92 + 448 x(93)#93
      + 629 x(94)#94 + 930 x(95)#95 + 433 x(96)#96 + 782 x(97)#97
      + 625 x(98)#98 + 1076 x(99)#99 + 1054 x(100)#100 + 686 x(101)#101
      + 765 x(102)#102 + 1034 x(103)#103 + 537 x(104)#104 + 602 x(105)#105
      + 757 x(106)#106 + 830 x(107)#107 + 654 x(108)#108 + 717 x(109)#109
      + 629 x(110)#110 + 1158 x(111)#111 + 712 x(112)#112 + 895 x(113)#113
      + 267 x(114)#114 + 910 x(115)#115 + 443 x(116)#116 + 621 x(117)#117
      + 1037 x(118)#118 + 595 x(119)#119 + 777 x(120)#120 + 945 x(121)#121
      + 794 x(122)#122 + 1016 x(123)#123 + 677 x(124)#124 + 883 x(125)#125
      + 964 x(126)#126 + 831 x(127)#127 + 886 x(128)#128 + 480 x(129)#129
      + 655 x(130)#130 + 485 x(131)#131 + 553 x(132)#132 + 600 x(133)#133
      + 906 x(134)#134 + 827 x(135)#135 + 379 x(136)#136 + 516 x(137)#137
      + 469 x(138)#138 + 794 x(139)#139 + 266 x(140)#140 + 1062 x(141)#141
      + 747 x(142)#142 + 792 x(143)#143 + 673 x(144)#144 + 974 x(145)#145
      + 805 x(146)#146 + 1053 x(147)#147 + 867 x(148)#148 + 856 x(149)#149
      + 737 x(150)#150 + 669 x(151)#151 + 457 x(152)#152 + 726 x(153)#153
      + 816 x(154)#154 + 1023 x(155)#155 + 832 x(156)#156 + 920 x(157)#157
      + 975 x(158)#158 + 757 x(159)#159 + 757 x(160)#160 + 701 x(161)#161
      + 1079 x(162)#162 + 502 x(163)#163 + 674 x(164)#164 + 903 x(165)#165
      + 768 x(166)#166 + 555 x(167)#167 + 955 x(168)#168 + 618 x(169)#169
      + 675 x(170)#170 + 472 x(171)#171 + 561 x(172)#172 + 734 x(173)#173
      + 593 x(174)#174 + 1151 x(175)#175 + 976 x(176)#176 + 729 x(177)#177
      + 616 x(178)#178 + 860 x(179)#179 + 597 x(180)#180 + 941 x(181)#181
      + 743 x(182)#182 + 422 x(183)#183 + 345 x(184)#184 + 992 x(185)#185
      + 777 x(186)#186 + 1040 x(187)#187 + 524 x(188)#188 + 684 x(189)#189
      + 576 x(190)#190 + 714 x(191)#191 + 728 x(192)#192 + 832 x(193)#193
      + 705 x(194)#194 + 649 x(195)#195 + 839 x(196)#196 + 681 x(197)#197
      + 643 x(198)#198 + 428 x(199)#199 + 798 x(200)#200 + 581 x(201)#201
      + 855 x(202)#202 + 731 x(203)#203 + 335 x(204)#204 + 698 x(205)#205
      + 748 x(206)#206 + 1008 x(207)#207 + 965 x(208)#208 + 625 x(209)#209
      + 862 x(210)#210 + 1046 x(211)#211 + 981 x(212)#212 + 859 x(213)#213
      + 475 x(214)#214 + 827 x(215)#215 + 604 x(216)#216 + 453 x(217)#217
      + 470 x(218)#218 + 836 x(219)#219 + 631 x(220)#220 + 652 x(221)#221
      + 535 x(222)#222 + 856 x(223)#223 + 838 x(224)#224 + 565 x(225)#225
      + 840 x(226)#226 + 940 x(227)#227 + 470 x(228)#228 + 961 x(229)#229
      + 915 x(230)#230 + 735 x(231)#231 + 601 x(232)#232 + 734 x(233)#233
      + 410 x(234)#234 + 558 x(235)#235 + 393 x(236)#236 + 559 x(237)#237
      + 611 x(238)#238 + 759 x(239)#239 + 747 x(240)#240 + 920 x(241)#241
      + 818 x(242)#242 + 398 x(243)#243 + 610 x(244)#244 + 789 x(245)#245
      + 624 x(246)#246 + 491 x(247)#247 + 881 x(248)#248 + 809 x(249)#249
Subject To
 c1: 825 x(0)#0 + 628 x(1)#1 + 788 x(2)#2 + 788 x(3)#3 + 970 x(4)#4 + 63 x(5)#5
     + 92 x(6)#6 + 414 x(7)#7 + 1000 x(8)#8 + 98 x(9)#9 + 397 x(10)#10
     + 767 x(11)#11 + 547 x(12)#12 + 281 x(13)#13 + 579 x(14)#14 + 626 x(15)#15
     + 695 x(16)#16 + 313 x(17)#17 + 617 x(18)#18 + 414 x(19)#19 + 739 x(20)#20
     + 734 x(21)#21 + 941 x(22)#22 + 626 x(23)#23 + 399 x(24)#24 + 229 x(25)#25
     + 133 x(26)#26 + 263 x(27)#27 + 23 x(28)#28 + 328 x(29)#29 + 296 x(30)#30
     + 882 x(31)#31 + 537 x(32)#32 + 365 x(33)#33 + 84 x(34)#34 + 511 x(35)#35
     + 984 x(36)#36 + 541 x(37)#37 + 619 x(38)#38 + 76 x(39)#39 + 191 x(40)#40
     + 829 x(41)#41 + 365 x(42)#42 + 18 x(43)#43 + 92 x(44)#44 + 542 x(45)#45
     + 500 x(46)#46 + 837 x(47)#47 + 482 x(48)#48 + 925 x(49)#49 + 841 x(50)#50
     + 158 x(51)#51 + 245 x(52)#52 + 754 x(53)#53 + 962 x(54)#54 + 684 x(55)#55
     + 99 x(56)#56 + 593 x(57)#57 + 536 x(58)#58 + 319 x(59)#59 + 191 x(60)#60
     + 170 x(61)#61 + 794 x(62)#62 + 881 x(63)#63 + 493 x(64)#64 + 289 x(65)#65
     + 883 x(66)#66 + 330 x(67)#67 + 580 x(68)#68 + 189 x(69)#69 + 180 x(70)#70
     + 250 x(71)#71 + 903 x(72)#72 + 161 x(73)#73 + 417 x(74)#74 + 845 x(75)#75
     + 962 x(76)#76 + 884 x(77)#77 + 68 x(78)#78 + 229 x(79)#79 + 508 x(80)#80
     + 344 x(81)#81 + 605 x(82)#82 + 267 x(83)#83 + 481 x(84)#84 + 269 x(85)#85
     + 612 x(86)#86 + 35 x(87)#87 + 421 x(88)#88 + 179 x(89)#89 + 716 x(90)#90
     + 946 x(91)#91 + 312 x(92)#92 + 681 x(93)#93 + 415 x(94)#94 + 57 x(95)#95
     + 107 x(96)#96 + 241 x(97)#97 + 321 x(98)#98 + 911 x(99)#99
     + 767 x(100)#100 + 928 x(101)#101 + 14 x(102)#102 + 295 x(103)#103
     + 568 x(104)#104 + 974 x(105)#105 + 738 x(106)#106 + 174 x(107)#107
     + 699 x(108)#108 + 330 x(109)#109 + 93 x(110)#110 + 867 x(111)#111
     + 958 x(112)#112 + 763 x(113)#113 + 251 x(114)#114 + 509 x(115)#115
     + 32 x(116)#116 + 54 x(117)#117 + 612 x(118)#118 + 486 x(119)#119
     + 644 x(120)#120 + 530 x(121)#121 + 144 x(122)#122 + 792 x(123)#123
     + 656 x(124)#124 + 965 x(125)#125 + 368 x(126)#126 + 3 x(127)#127
     + 869 x(128)#128 + 996 x(129)#129 + 645 x(130)#130 + 356 x(131)#131
     + 7 x(132)#132 + 157 x(133)#133 + 858 x(134)#134 + 933 x(135)#135
     + 618 x(136)#136 + 317 x(137)#137 + 696 x(138)#138 + 375 x(139)#139
     + 73 x(140)#140 + 761 x(141)#141 + 413 x(142)#142 + 407 x(143)#143
     + 86 x(144)#144 + 773 x(145)#145 + 467 x(146)#146 + 860 x(147)#147
     + 8 x(148)#148 + 205 x(149)#149 + 714 x(150)#150 + 436 x(151)#151
     + 888 x(152)#152 + 431 x(153)#153 + 781 x(154)#154 + 249 x(155)#155
     + 953 x(156)#156 + 605 x(157)#157 + 821 x(158)#158 + 903 x(159)#159
     + 338 x(160)#160 + 267 x(161)#161 + 520 x(162)#162 + 514 x(163)#163
     + 990 x(164)#164 + 597 x(165)#165 + 175 x(166)#166 + 474 x(167)#167
     + 862 x(168)#168 + 102 x(169)#169 + 235 x(170)#170 + 94 x(171)#171
     + 235 x(172)#172 + 768 x(173)#173 + 365 x(174)#174 + 562 x(175)#175
     + 526 x(176)#176 + 670 x(177)#177 + 127 x(178)#178 + 271 x(179)#179
     + 371 x(180)#180 + 67 x(181)#181 + 629 x(182)#182 + 342 x(183)#183
     + 649 x(184)#184 + 761 x(185)#185 + 627 x(186)#186 + 917 x(187)#187
     + 82 x(188)#188 + 273 x(189)#189 + 278 x(190)#190 + 837 x(191)#191
     + 611 x(192)#192 + 629 x(193)#193 + 490 x(194)#194 + 210 x(195)#195
     + 555 x(196)#196 + 519 x(197)#197 + 999 x(198)#198 + 592 x(199)#199
     + 411 x(200)#200 + 480 x(201)#201 + 482 x(202)#202 + 421 x(203)#203
     + 329 x(204)#204 + 799 x(205)#205 + 548 x(206)#206 + 474 x(207)#207
     + 140 x(208)#208 + 615 x(209)#209 + 445 x(210)#210 + 440 x(211)#211
     + 376 x(212)#212 + 535 x(213)#213 + 638 x(214)#214 + 861 x(215)#215
     + 655 x(216)#216 + 336 x(217)#217 + 98 x(218)#218 + 908 x(219)#219
     + 147 x(220)#220 + 890 x(221)#221 + 202 x(222)#222 + 942 x(223)#223
     + 926 x(224)#224 + 363 x(225)#225 + 978 x(226)#226 + 10 x(227)#227
     + 766 x(228)#228 + 443 x(229)#229 + 320 x(230)#230 + 85 x(231)#231
     + 449 x(232)#232 + 931 x(233)#233 + 142 x(234)#234 + 186 x(235)#235
     + 188 x(236)#236 + 551 x(237)#237 + 827 x(238)#238 + 576 x(239)#239
     + 939 x(240)#240 + 472 x(241)#241 + 286 x(242)#242 + 38 x(243)#243
     + 663 x(244)#244 + 290 x(245)#245 + 749 x(246)#246 + 399 x(247)#247
     + 11 x(248)#248 + 909 x(249)#249 <= 92989
 c2: 25 x(0)#0 + 773 x(1)#1 + 709 x(2)#2 + 695 x(3)#3 + 322 x(4)#4 + 480 x(5)#5
     + 525 x(6)#6 + 380 x(7)#7 + 521 x(8)#8 + 923 x(9)#9 + 375 x(10)#10
     + 210 x(11)#11 + 394 x(12)#12 + 42 x(13)#13 + 232 x(14)#14 + 176 x(15)#15
     + 102 x(16)#16 + 198 x(17)#17 + 794 x(18)#18 + 271 x(19)#19 + 26 x(20)#20
     + 196 x(21)#21 + 464 x(22)#22 + 967 x(23)#23 + 393 x(24)#24 + 945 x(25)#25
     + 560 x(26)#26 + 331 x(27)#27 + 234 x(28)#28 + 261 x(29)#29 + 891 x(30)#30
     + 96 x(31)#31 + 817 x(32)#32 + 42 x(33)#33 + 478 x(34)#34 + 944 x(35)#35
     + 630 x(36)#36 + 307 x(37)#37 + 487 x(38)#38 + 529 x(39)#39 + 71 x(40)#40
     + 701 x(41)#41 + 822 x(42)#42 + 444 x(43)#43 + 278 x(44)#44 + 215 x(45)#45
     + 320 x(46)#46 + 566 x(47)#47 + 595 x(48)#48 + 473 x(49)#49 + 661 x(50)#50
     + 992 x(51)#51 + 536 x(52)#52 + 718 x(53)#53 + 332 x(54)#54 + 71 x(55)#55
     + 391 x(56)#56 + 16 x(57)#57 + 388 x(58)#58 + 139 x(59)#59 + 860 x(60)#60
     + 111 x(61)#61 + 777 x(62)#62 + 216 x(63)#63 + 297 x(64)#64 + 986 x(65)#65
     + 928 x(66)#66 + 446 x(67)#67 + 381 x(68)#68 + 641 x(69)#69 + 732 x(70)#70
     + 825 x(71)#71 + 692 x(72)#72 + 840 x(73)#73 + 4 x(74)#74 + 784 x(75)#75
     + 453 x(76)#76 + 180 x(77)#77 + 114 x(78)#78 + 85 x(79)#79 + 37 x(80)#80
     + 771 x(81)#81 + 148 x(82)#82 + 297 x(83)#83 + 247 x(84)#84 + 422 x(85)#85
     + 1000 x(86)#86 + 77 x(87)#87 + 784 x(88)#88 + 621 x(89)#89 + 617 x(90)#90
     + 817 x(91)#91 + 660 x(92)#92 + 205 x(93)#93 + 453 x(94)#94 + 757 x(95)#95
     + 170 x(96)#96 + 852 x(97)#97 + 914 x(98)#98 + 329 x(99)#99
     + 560 x(100)#100 + 289 x(101)#101 + 484 x(102)#102 + 916 x(103)#103
     + 95 x(104)#104 + 276 x(105)#105 + 504 x(106)#106 + 958 x(107)#107
     + 500 x(108)#108 + 105 x(109)#109 + 317 x(110)#110 + 958 x(111)#111
     + 652 x(112)#112 + 60 x(113)#113 + 143 x(114)#114 + 555 x(115)#115
     + 772 x(116)#116 + 643 x(117)#117 + 459 x(118)#118 + 524 x(119)#119
     + 492 x(120)#120 + 566 x(121)#121 + 945 x(122)#122 + 414 x(123)#123
     + 697 x(124)#124 + 159 x(125)#125 + 309 x(126)#126 + 840 x(127)#127
     + 20 x(128)#128 + 866 x(129)#129 + 284 x(130)#130 + 431 x(131)#131
     + 183 x(132)#132 + 651 x(133)#133 + 39 x(134)#134 + 923 x(135)#135
     + 337 x(136)#136 + 457 x(137)#137 + 361 x(138)#138 + 943 x(139)#139
     + 198 x(140)#140 + 518 x(141)#141 + 473 x(142)#142 + 505 x(143)#143
     + 383 x(144)#144 + 820 x(145)#145 + 686 x(146)#146 + 917 x(147)#147
     + 994 x(148)#148 + 383 x(149)#149 + 540 x(150)#150 + 577 x(151)#151
     + 10 x(152)#152 + 637 x(153)#153 + 755 x(154)#154 + 832 x(155)#155
     + 996 x(156)#156 + 645 x(157)#157 + 42 x(158)#158 + 520 x(159)#159
     + 543 x(160)#160 + 458 x(161)#161 + 807 x(162)#162 + 451 x(163)#163
     + 297 x(164)#164 + 255 x(165)#165 + 766 x(166)#166 + 61 x(167)#167
     + 425 x(168)#168 + 39 x(169)#169 + 538 x(170)#170 + 266 x(171)#171
     + 353 x(172)#172 + 75 x(173)#173 + 198 x(174)#174 + 981 x(175)#175
     + 983 x(176)#176 + 971 x(177)#177 + 273 x(178)#178 + 320 x(179)#179
     + 591 x(180)#180 + 929 x(181)#181 + 686 x(182)#182 + 38 x(183)#183
     + 19 x(184)#184 + 360 x(185)#185 + 352 x(186)#186 + 994 x(187)#187
     + 381 x(188)#188 + 999 x(189)#189 + 885 x(190)#190 + 254 x(191)#191
     + 618 x(192)#192 + 573 x(193)#193 + 937 x(194)#194 + 99 x(195)#195
     + 911 x(196)#196 + 220 x(197)#197 + 335 x(198)#198 + 19 x(199)#199
     + 177 x(200)#200 + 654 x(201)#201 + 984 x(202)#202 + 239 x(203)#203
     + 269 x(204)#204 + 256 x(205)#205 + 876 x(206)#206 + 578 x(207)#207
     + 620 x(208)#208 + 945 x(209)#209 + 89 x(210)#210 + 251 x(211)#211
     + 972 x(212)#212 + 464 x(213)#213 + 566 x(214)#214 + 411 x(215)#215
     + 310 x(216)#216 + 8 x(217)#217 + 262 x(218)#218 + 602 x(219)#219
     + 404 x(220)#220 + 613 x(221)#221 + 213 x(222)#222 + 201 x(223)#223
     + 702 x(224)#224 + 596 x(225)#225 + 588 x(226)#226 + 871 x(227)#227
     + 65 x(228)#228 + 492 x(229)#229 + 28 x(230)#230 + 116 x(231)#231
     + 823 x(232)#232 + 678 x(233)#233 + 36 x(234)#234 + 727 x(235)#235
     + 284 x(236)#236 + 133 x(237)#237 + 35 x(238)#238 + 353 x(239)#239
     + 341 x(240)#240 + 845 x(241)#241 + 773 x(242)#242 + 982 x(243)#243
     + 273 x(244)#244 + 230 x(245)#245 + 766 x(246)#246 + 135 x(247)#247
     + 789 x(248)#248 + 525 x(249)#249 <= 90399
 c3: 471 x(0)#0 + 912 x(1)#1 + 648 x(2)#2 + 775 x(3)#3 + 402 x(4)#4
     + 617 x(5)#5 + 667 x(6)#6 + 653 x(7)#7 + 127 x(8)#8 + 815 x(9)#9
     + 295 x(10)#10 + 909 x(11)#11 + 428 x(12)#12 + 73 x(13)#13 + 11 x(14)#14
     + 926 x(15)#15 + 791 x(16)#16 + 610 x(17)#17 + 228 x(18)#18 + 906 x(19)#19
     + 740 x(20)#20 + 833 x(21)#21 + 843 x(22)#22 + 57 x(23)#23 + 421 x(24)#24
     + 570 x(25)#25 + 429 x(26)#26 + 129 x(27)#27 + 868 x(28)#28 + 746 x(29)#29
     + 773 x(30)#30 + 136 x(31)#31 + 881 x(32)#32 + 965 x(33)#33 + 962 x(34)#34
     + 829 x(35)#35 + 436 x(36)#36 + 999 x(37)#37 + 496 x(38)#38 + 849 x(39)#39
     + 842 x(40)#40 + 996 x(41)#41 + 168 x(42)#42 + 369 x(43)#43 + 656 x(44)#44
     + 313 x(45)#45 + 966 x(46)#46 + 728 x(47)#47 + 728 x(48)#48 + 319 x(49)#49
     + 662 x(50)#50 + 598 x(51)#51 + 358 x(52)#52 + 179 x(53)#53 + 166 x(54)#54
     + 940 x(55)#55 + 281 x(56)#56 + 622 x(57)#57 + 641 x(58)#58 + 355 x(59)#59
     + 66 x(60)#60 + 253 x(61)#61 + 465 x(62)#62 + 503 x(63)#63 + 318 x(64)#64
     + 584 x(65)#65 + 154 x(66)#66 + 246 x(67)#67 + 372 x(68)#68 + 939 x(69)#69
     + 591 x(70)#70 + 32 x(71)#71 + 13 x(72)#72 + 798 x(73)#73 + 981 x(74)#74
     + 430 x(75)#75 + 438 x(76)#76 + 660 x(77)#77 + 560 x(78)#78 + 619 x(79)#79
     + 319 x(80)#80 + 606 x(81)#81 + 177 x(82)#82 + 363 x(83)#83 + 97 x(84)#84
     + 950 x(85)#85 + 765 x(86)#86 + 525 x(87)#87 + 593 x(88)#88 + 531 x(89)#89
     + 69 x(90)#90 + 762 x(91)#91 + 623 x(92)#92 + 295 x(93)#93 + 407 x(94)#94
     + 803 x(95)#95 + 134 x(96)#96 + 145 x(97)#97 + 599 x(98)#98 + 860 x(99)#99
     + 800 x(100)#100 + 731 x(101)#101 + 461 x(102)#102 + 722 x(103)#103
     + 73 x(104)#104 + 388 x(105)#105 + 829 x(106)#106 + 941 x(107)#107
     + 576 x(108)#108 + 339 x(109)#109 + 81 x(110)#110 + 646 x(111)#111
     + 956 x(112)#112 + 704 x(113)#113 + 167 x(114)#114 + 944 x(115)#115
     + 5 x(116)#116 + 178 x(117)#117 + 977 x(118)#118 + 894 x(119)#119
     + 518 x(120)#120 + 936 x(121)#121 + 440 x(122)#122 + 727 x(123)#123
     + 107 x(124)#124 + 448 x(125)#125 + 96 x(126)#126 + 884 x(127)#127
     + 295 x(128)#128 + 41 x(129)#129 + 866 x(130)#130 + 557 x(131)#131
     + 922 x(132)#132 + 74 x(133)#133 + 733 x(134)#134 + 719 x(135)#135
     + 140 x(136)#136 + 182 x(137)#137 + x(138)#138 + 879 x(139)#139
     + 173 x(140)#140 + 510 x(141)#141 + 929 x(142)#142 + 762 x(143)#143
     + 488 x(144)#144 + 932 x(145)#145 + 445 x(146)#146 + 676 x(147)#147
     + 899 x(148)#148 + 224 x(149)#149 + 250 x(150)#150 + 29 x(151)#151
     + 439 x(152)#152 + 101 x(153)#153 + 675 x(154)#154 + 827 x(155)#155
     + 159 x(156)#156 + 922 x(157)#157 + 836 x(158)#158 + 642 x(159)#159
     + 762 x(160)#160 + 216 x(161)#161 + 859 x(162)#162 + 355 x(163)#163
     + 241 x(164)#164 + 829 x(165)#165 + 213 x(166)#166 + 799 x(167)#167
     + 560 x(168)#168 + 685 x(169)#169 + 353 x(170)#170 + 578 x(171)#171
     + 405 x(172)#172 + 963 x(173)#173 + 847 x(174)#174 + 968 x(175)#175
     + 450 x(176)#176 + 859 x(177)#177 + 398 x(178)#178 + 25 x(179)#179
     + 201 x(180)#180 + 688 x(181)#181 + 448 x(182)#182 + 195 x(183)#183
     + 124 x(184)#184 + 772 x(185)#185 + 262 x(186)#186 + 388 x(187)#187
     + 258 x(188)#188 + 394 x(189)#189 + 347 x(190)#190 + 644 x(191)#191
     + 648 x(192)#192 + 165 x(193)#193 + 673 x(194)#194 + 164 x(195)#195
     + 565 x(196)#196 + 798 x(197)#197 + 518 x(198)#198 + 178 x(199)#199
     + 132 x(200)#200 + 184 x(201)#201 + 701 x(202)#202 + 199 x(203)#203
     + 288 x(204)#204 + 429 x(205)#205 + 299 x(206)#206 + 702 x(207)#207
     + 833 x(208)#208 + 140 x(209)#209 + 904 x(210)#210 + 509 x(211)#211
     + 409 x(212)#212 + 801 x(213)#213 + 10 x(214)#214 + 633 x(215)#215
     + 101 x(216)#216 + 474 x(217)#217 + 416 x(218)#218 + 939 x(219)#219
     + 419 x(220)#220 + 874 x(221)#221 + 764 x(222)#222 + 204 x(223)#223
     + 288 x(224)#224 + 168 x(225)#225 + 438 x(226)#226 + 186 x(227)#227
     + 79 x(228)#228 + 645 x(229)#229 + 751 x(230)#230 + 815 x(231)#231
     + 808 x(232)#232 + 216 x(233)#233 + 196 x(234)#234 + 30 x(235)#235
     + 375 x(236)#236 + 801 x(237)#237 + 791 x(238)#238 + 149 x(239)#239
     + 319 x(240)#240 + 912 x(241)#241 + 572 x(242)#242 + 313 x(243)#243
     + 322 x(244)#244 + 963 x(245)#245 + 97 x(246)#246 + 253 x(247)#247
     + 818 x(248)#248 + 289 x(249)#249 <= 96305
 c4: 619 x(0)#0 + 528 x(1)#1 + 500 x(2)#2 + 377 x(3)#3 + 799 x(4)#4
     + 377 x(5)#5 + 242 x(6)#6 + 754 x(7)#7 + 311 x(8)#8 + 979 x(9)#9
     + 733 x(10)#10 + 737 x(11)#11 + 289 x(12)#12 + 416 x(13)#13 + 533 x(14)#14
     + 172 x(15)#15 + 647 x(16)#16 + 719 x(17)#17 + 56 x(18)#18 + 145 x(19)#19
     + 9 x(20)#20 + 702 x(21)#21 + 276 x(22)#22 + 166 x(23)#23 + 578 x(24)#24
     + 141 x(25)#25 + 812 x(26)#26 + 975 x(27)#27 + 908 x(28)#28 + 784 x(29)#29
     + 180 x(30)#30 + 616 x(31)#31 + 76 x(32)#32 + 99 x(33)#33 + 197 x(34)#34
     + 784 x(35)#35 + 582 x(36)#36 + 891 x(37)#37 + 455 x(38)#38 + 74 x(39)#39
     + 647 x(40)#40 + 1000 x(41)#41 + 553 x(42)#42 + 842 x(43)#43
     + 460 x(44)#44 + 124 x(45)#45 + 402 x(46)#46 + 157 x(47)#47 + 430 x(48)#48
     + 738 x(49)#49 + 797 x(50)#50 + 157 x(51)#51 + 522 x(52)#52 + 727 x(53)#53
     + 526 x(54)#54 + 606 x(55)#55 + 57 x(56)#56 + 130 x(57)#57 + 592 x(58)#58
     + 572 x(59)#59 + 596 x(60)#60 + 90 x(61)#61 + 241 x(62)#62 + 104 x(63)#63
     + 334 x(64)#64 + 188 x(65)#65 + 740 x(66)#66 + 374 x(67)#67 + 119 x(68)#68
     + 753 x(69)#69 + 861 x(70)#70 + 225 x(71)#71 + 132 x(72)#72 + 993 x(73)#73
     + 402 x(74)#74 + 897 x(75)#75 + 704 x(76)#76 + 594 x(77)#77 + 734 x(78)#78
     + 362 x(79)#79 + 416 x(80)#80 + 151 x(81)#81 + 133 x(82)#82 + 236 x(83)#83
     + 9 x(84)#84 + 105 x(85)#85 + 583 x(86)#86 + 561 x(87)#87 + 642 x(88)#88
     + 238 x(89)#89 + 676 x(90)#90 + 658 x(91)#91 + 657 x(92)#92 + 315 x(93)#93
     + 819 x(94)#94 + 952 x(95)#95 + 591 x(96)#96 + 923 x(97)#97 + 435 x(98)#98
     + 364 x(99)#99 + 763 x(100)#100 + 949 x(101)#101 + 550 x(102)#102
     + 158 x(103)#103 + 183 x(104)#104 + 366 x(105)#105 + 448 x(106)#106
     + 6 x(107)#107 + 340 x(108)#108 + 460 x(109)#109 + 771 x(110)#110
     + 763 x(111)#111 + 510 x(112)#112 + 686 x(113)#113 + 672 x(114)#114
     + 414 x(115)#115 + 335 x(116)#116 + 156 x(117)#117 + 413 x(118)#118
     + 70 x(119)#119 + 533 x(120)#120 + 482 x(121)#121 + 386 x(122)#122
     + 770 x(123)#123 + 467 x(124)#124 + 811 x(125)#125 + 881 x(126)#126
     + 145 x(127)#127 + 384 x(128)#128 + 23 x(129)#129 + 192 x(130)#130
     + 137 x(131)#131 + 585 x(132)#132 + 669 x(133)#133 + 369 x(134)#134
     + 73 x(135)#135 + 175 x(136)#136 + 583 x(137)#137 + 468 x(138)#138
     + 671 x(139)#139 + 337 x(140)#140 + 792 x(141)#141 + 744 x(142)#142
     + 121 x(143)#143 + 576 x(144)#144 + 822 x(145)#145 + 559 x(146)#146
     + 660 x(147)#147 + 404 x(148)#148 + 176 x(149)#149 + 442 x(150)#150
     + 30 x(151)#151 + 121 x(152)#152 + 310 x(153)#153 + 881 x(154)#154
     + 380 x(155)#155 + 585 x(156)#156 + 906 x(157)#157 + 84 x(158)#158
     + 986 x(159)#159 + 745 x(160)#160 + 874 x(161)#161 + 461 x(162)#162
     + 246 x(163)#163 + 699 x(164)#164 + 315 x(165)#165 + 550 x(166)#166
     + 259 x(167)#167 + 822 x(168)#168 + 4 x(169)#169 + 4 x(170)#170
     + 567 x(171)#171 + 775 x(172)#172 + 408 x(173)#173 + 38 x(174)#174
     + 979 x(175)#175 + 509 x(176)#176 + 9 x(177)#177 + 312 x(178)#178
     + 341 x(179)#179 + 608 x(180)#180 + 973 x(181)#181 + 245 x(182)#182
     + 816 x(183)#183 + 599 x(184)#184 + 458 x(185)#185 + 161 x(186)#186
     + 895 x(187)#187 + 148 x(188)#188 + 672 x(189)#189 + 842 x(190)#190
     + 259 x(191)#191 + 665 x(192)#192 + 611 x(193)#193 + 762 x(194)#194
     + 874 x(195)#195 + 399 x(196)#196 + 797 x(197)#197 + 549 x(198)#198
     + 251 x(199)#199 + 794 x(200)#200 + 509 x(201)#201 + 210 x(202)#202
     + 531 x(203)#203 + 149 x(204)#204 + 634 x(205)#205 + 723 x(206)#206
     + 434 x(207)#207 + 470 x(208)#208 + 446 x(209)#209 + 989 x(210)#210
     + 994 x(211)#211 + 146 x(212)#212 + 26 x(213)#213 + 391 x(214)#214
     + 125 x(215)#215 + 887 x(216)#216 + 22 x(217)#217 + 530 x(218)#218
     + 819 x(219)#219 + 708 x(220)#220 + 157 x(221)#221 + 421 x(222)#222
     + 837 x(223)#223 + 705 x(224)#224 + 569 x(225)#225 + 453 x(226)#226
     + 909 x(227)#227 + 93 x(228)#228 + 236 x(229)#229 + 742 x(230)#230
     + 602 x(231)#231 + 27 x(232)#232 + 946 x(233)#233 + 541 x(234)#234
     + 341 x(235)#235 + 532 x(236)#236 + 471 x(237)#237 + 633 x(238)#238
     + 365 x(239)#239 + 883 x(240)#240 + 996 x(241)#241 + 717 x(242)#242
     + 90 x(243)#243 + 635 x(244)#244 + 865 x(245)#245 + 598 x(246)#246
     + 436 x(247)#247 + 473 x(248)#248 + 993 x(249)#249 <= 92416
 c5: 61 x(0)#0 + 897 x(1)#1 + 160 x(2)#2 + 849 x(3)#3 + 611 x(4)#4 + 376 x(5)#5
     + 384 x(6)#6 + 374 x(7)#7 + 199 x(8)#8 + 640 x(9)#9 + 838 x(10)#10
     + 728 x(11)#11 + 498 x(12)#12 + 488 x(13)#13 + 723 x(14)#14 + 147 x(15)#15
     + 525 x(16)#16 + 405 x(17)#17 + 180 x(18)#18 + 431 x(19)#19 + 215 x(20)#20
     + 669 x(21)#21 + 900 x(22)#22 + 349 x(23)#23 + 696 x(24)#24 + 966 x(25)#25
     + 803 x(26)#26 + 921 x(27)#27 + 580 x(28)#28 + 13 x(29)#29 + 268 x(30)#30
     + 189 x(31)#31 + 736 x(32)#32 + 504 x(33)#33 + 585 x(34)#34 + 747 x(35)#35
     + 358 x(36)#36 + 547 x(37)#37 + 256 x(38)#38 + 8 x(39)#39 + 737 x(40)#40
     + 987 x(41)#41 + 570 x(42)#42 + 114 x(43)#43 + 336 x(44)#44 + 795 x(45)#45
     + 344 x(46)#46 + 143 x(47)#47 + 994 x(48)#48 + 298 x(49)#49 + 228 x(50)#50
     + 3 x(51)#51 + 909 x(52)#52 + 561 x(53)#53 + 936 x(54)#54 + 783 x(55)#55
     + 966 x(56)#56 + 429 x(57)#57 + 793 x(58)#58 + 137 x(59)#59 + 200 x(60)#60
     + 441 x(61)#61 + 753 x(62)#62 + 481 x(63)#63 + 309 x(64)#64 + 417 x(65)#65
     + 407 x(66)#66 + 61 x(67)#67 + 830 x(68)#68 + 342 x(69)#69 + 135 x(70)#70
     + 585 x(71)#71 + 106 x(72)#72 + 340 x(73)#73 + 105 x(74)#74 + 208 x(75)#75
     + 1000 x(76)#76 + 965 x(77)#77 + 850 x(78)#78 + 488 x(79)#79
     + 156 x(80)#80 + 764 x(81)#81 + 389 x(82)#82 + 113 x(83)#83 + 843 x(84)#84
     + 41 x(85)#85 + 208 x(86)#86 + 476 x(87)#87 + 104 x(88)#88 + 920 x(89)#89
     + 94 x(90)#90 + 435 x(91)#91 + 314 x(92)#92 + 551 x(93)#93 + 367 x(94)#94
     + 172 x(95)#95 + 835 x(96)#96 + 347 x(97)#97 + 697 x(98)#98 + 509 x(99)#99
     + 345 x(100)#100 + 2 x(101)#101 + 333 x(102)#102 + 807 x(103)#103
     + 722 x(104)#104 + 958 x(105)#105 + 138 x(106)#106 + 499 x(107)#107
     + 922 x(108)#108 + 758 x(109)#109 + 699 x(110)#110 + 165 x(111)#111
     + 220 x(112)#112 + 484 x(113)#113 + 95 x(114)#114 + 202 x(115)#115
     + 66 x(116)#116 + 126 x(117)#117 + 891 x(118)#118 + 658 x(119)#119
     + 292 x(120)#120 + 277 x(121)#121 + 842 x(122)#122 + 477 x(123)#123
     + 162 x(124)#124 + 728 x(125)#125 + 887 x(126)#126 + 624 x(127)#127
     + 746 x(128)#128 + 406 x(129)#129 + 177 x(130)#130 + 717 x(131)#131
     + 985 x(132)#132 + 86 x(133)#133 + 660 x(134)#134 + 203 x(135)#135
     + x(136)#136 + 798 x(137)#137 + 246 x(138)#138 + 291 x(139)#139
     + 454 x(140)#140 + 717 x(141)#141 + 913 x(142)#142 + 677 x(143)#143
     + x(144)#144 + 769 x(145)#145 + 353 x(146)#146 + 454 x(147)#147
     + 384 x(148)#148 + 920 x(149)#149 + 194 x(150)#150 + 922 x(151)#151
     + 484 x(152)#152 + 279 x(153)#153 + 588 x(154)#154 + 601 x(155)#155
     + 745 x(156)#156 + 139 x(157)#157 + 745 x(158)#158 + 555 x(159)#159
     + 243 x(160)#160 + 643 x(161)#161 + 676 x(162)#162 + 123 x(163)#163
     + 444 x(164)#164 + 938 x(165)#165 + 954 x(166)#166 + 430 x(167)#167
     + 736 x(168)#168 + 686 x(169)#169 + 885 x(170)#170 + 23 x(171)#171
     + 405 x(172)#172 + 634 x(173)#173 + 172 x(174)#174 + 194 x(175)#175
     + 155 x(176)#176 + 100 x(177)#177 + 53 x(178)#178 + 957 x(179)#179
     + 223 x(180)#180 + 237 x(181)#181 + 821 x(182)#182 + 220 x(183)#183
     + 7 x(184)#184 + 868 x(185)#185 + 461 x(186)#186 + 189 x(187)#187
     + 213 x(188)#188 + 505 x(189)#189 + 477 x(190)#190 + 511 x(191)#191
     + 132 x(192)#192 + 738 x(193)#193 + 141 x(194)#194 + 73 x(195)#195
     + 180 x(196)#196 + 455 x(197)#197 + 320 x(198)#198 + 502 x(199)#199
     + 254 x(200)#200 + 918 x(201)#201 + 926 x(202)#202 + 953 x(203)#203
     + 574 x(204)#204 + 390 x(205)#205 + 30 x(206)#206 + 706 x(207)#207
     + 338 x(208)#208 + 892 x(209)#209 + 496 x(210)#210 + 614 x(211)#211
     + 998 x(212)#212 + 520 x(213)#213 + 740 x(214)#214 + 865 x(215)#215
     + 494 x(216)#216 + 156 x(217)#217 + 5 x(218)#218 + 531 x(219)#219
     + 176 x(220)#220 + 97 x(221)#221 + 810 x(222)#222 + 698 x(223)#223
     + 759 x(224)#224 + 538 x(225)#225 + 698 x(226)#226 + 421 x(227)#227
     + 568 x(228)#228 + 781 x(229)#229 + 821 x(230)#230 + 260 x(231)#231
     + 722 x(232)#232 + 421 x(233)#233 + 819 x(234)#234 + 472 x(235)#235
     + 144 x(236)#236 + 113 x(237)#237 + 693 x(238)#238 + 798 x(239)#239
     + 119 x(240)#240 + 961 x(241)#241 + 333 x(242)#242 + 235 x(243)#243
     + 46 x(244)#244 + 686 x(245)#245 + 414 x(246)#246 + 527 x(247)#247
     + 111 x(248)#248 + 120 x(249)#249 <= 90239
Bounds
 0 <= x(0)#0 <= 1
 0 <= x(1)#1 <= 1
 0 <= x(2)#2 <= 1
 0 <= x(3)#3 <= 1
 0 <= x(4)#4 <= 1
 0 <= x(5)#5 <= 1
 0 <= x(6)#6 <= 1
 0 <= x(7)#7 <= 1
 0 <= x(8)#8 <= 1
 0 <= x(9)#9 <= 1
 0 <= x(10)#10 <= 1
 0 <= x(11)#11 <= 1
 0 <= x(12)#12 <= 1
 0 <= x(13)#13 <= 1
 0 <= x(14)#14 <= 1
 0 <= x(15)#15 <= 1
 0 <= x(16)#16 <= 1
 0 <= x(17)#17 <= 1
 0 <= x(18)#18 <= 1
 0 <= x(19)#19 <= 1
 0 <= x(20)#20 <= 1
 0 <= x(21)#21 <= 1
 0 <= x(22)#22 <= 1
 0 <= x(23)#23 <= 1
 0 <= x(24)#24 <= 1
 0 <= x(25)#25 <= 1
 0 <= x(26)#26 <= 1
 0 <= x(27)#27 <= 1
 0 <= x(28)#28 <= 1
 0 <= x(29)#29 <= 1
 0 <= x(30)#30 <= 1
 0 <= x(31)#31 <= 1
 0 <= x(32)#32 <= 1
 0 <= x(33)#33 <= 1
 0 <= x(34)#34 <= 1
 0 <= x(35)#35 <= 1
 0 <= x(36)#36 <= 1
 0 <= x(37)#37 <= 1
 0 <= x(38)#38 <= 1
 0 <= x(39)#39 <= 1
 0 <= x(40)#40 <= 1
 0 <= x(41)#41 <= 1
 0 <= x(42)#42 <= 1
 0 <= x(43)#43 <= 1
 0 <= x(44)#44 <= 1
 0 <= x(45)#45 <= 1
 0 <= x(46)#46 <= 1
 0 <= x(47)#47 <= 1
 0 <= x(48)#48 <= 1
 0 <= x(49)#49 <= 1
 0 <= x(50)#50 <= 1
 0 <= x(51)#51 <= 1
 0 <= x(52)#52 <= 1
 0 <= x(53)#53 <= 1
 0 <= x(54)#54 <= 1
 0 <= x(55)#55 <= 1
 0 <= x(56)#56 <= 1
 0 <= x(57)#57 <= 1
 0 <= x(58)#58 <= 1
 0 <= x(59)#59 <= 1
 0 <= x(60)#60 <= 1
 0 <= x(61)#61 <= 1
 0 <= x(62)#62 <= 1
 0 <= x(63)#63 <= 1
 0 <= x(64)#64 <= 1
 0 <= x(65)#65 <= 1
 0 <= x(66)#66 <= 1
 0 <= x(67)#67 <= 1
 0 <= x(68)#68 <= 1
 0 <= x(69)#69 <= 1
 0 <= x(70)#70 <= 1
 0 <= x(71)#71 <= 1
 0 <= x(72)#72 <= 1
 0 <= x(73)#73 <= 1
 0 <= x(74)#74 <= 1
 0 <= x(75)#75 <= 1
 0 <= x(76)#76 <= 1
 0 <= x(77)#77 <= 1
 0 <= x(78)#78 <= 1
 0 <= x(79)#79 <= 1
 0 <= x(80)#80 <= 1
 0 <= x(81)#81 <= 1
 0 <= x(82)#82 <= 1
 0 <= x(83)#83 <= 1
 0 <= x(84)#84 <= 1
 0 <= x(85)#85 <= 1
 0 <= x(86)#86 <= 1
 0 <= x(87)#87 <= 1
 0 <= x(88)#88 <= 1
 0 <= x(89)#89 <= 1
 0 <= x(90)#90 <= 1
 0 <= x(91)#91 <= 1
 0 <= x(92)#92 <= 1
 0 <= x(93)#93 <= 1
 0 <= x(94)#94 <= 1
 0 <= x(95)#95 <= 1
 0 <= x(96)#96 <= 1
 0 <= x(97)#97 <= 1
 0 <= x(98)#98 <= 1
 0 <= x(99)#99 <= 1
 0 <= x(100)#100 <= 1
 0 <= x(101)#101 <= 1
 0 <= x(102)#102 <= 1
 0 <= x(103)#103 <= 1
 0 <= x(104)#104 <= 1
 0 <= x(105)#105 <= 1
 0 <= x(106)#106 <= 1
 0 <= x(107)#107 <= 1
 0 <= x(108)#108 <= 1
 0 <= x(109)#109 <= 1
 0 <= x(110)#110 <= 1
 0 <= x(111)#111 <= 1
 0 <= x(112)#112 <= 1
 0 <= x(113)#113 <= 1
 0 <= x(114)#114 <= 1
 0 <= x(115)#115 <= 1
 0 <= x(116)#116 <= 1
 0 <= x(117)#117 <= 1
 0 <= x(118)#118 <= 1
 0 <= x(119)#119 <= 1
 0 <= x(120)#120 <= 1
 0 <= x(121)#121 <= 1
 0 <= x(122)#122 <= 1
 0 <= x(123)#123 <= 1
 0 <= x(124)#124 <= 1
 0 <= x(125)#125 <= 1
 0 <= x(126)#126 <= 1
 0 <= x(127)#127 <= 1
 0 <= x(128)#128 <= 1
 0 <= x(129)#129 <= 1
 0 <= x(130)#130 <= 1
 0 <= x(131)#131 <= 1
 0 <= x(132)#132 <= 1
 0 <= x(133)#133 <= 1
 0 <= x(134)#134 <= 1
 0 <= x(135)#135 <= 1
 0 <= x(136)#136 <= 1
 0 <= x(137)#137 <= 1
 0 <= x(138)#138 <= 1
 0 <= x(139)#139 <= 1
 0 <= x(140)#140 <= 1
 0 <= x(141)#141 <= 1
 0 <= x(142)#142 <= 1
 0 <= x(143)#143 <= 1
 0 <= x(144)#144 <= 1
 0 <= x(145)#145 <= 1
 0 <= x(146)#146 <= 1
 0 <= x(147)#147 <= 1
 0 <= x(148)#148 <= 1
 0 <= x(149)#149 <= 1
 0 <= x(150)#150 <= 1
 0 <= x(151)#151 <= 1
 0 <= x(152)#152 <= 1
 0 <= x(153)#153 <= 1
 0 <= x(154)#154 <= 1
 0 <= x(155)#155 <= 1
 0 <= x(156)#156 <= 1
 0 <= x(157)#157 <= 1
 0 <= x(158)#158 <= 1
 0 <= x(159)#159 <= 1
 0 <= x(160)#160 <= 1
 0 <= x(161)#161 <= 1
 0 <= x(162)#162 <= 1
 0 <= x(163)#163 <= 1
 0 <= x(164)#164 <= 1
 0 <= x(165)#165 <= 1
 0 <= x(166)#166 <= 1
 0 <= x(167)#167 <= 1
 0 <= x(168)#168 <= 1
 0 <= x(169)#169 <= 1
 0 <= x(170)#170 <= 1
 0 <= x(171)#171 <= 1
 0 <= x(172)#172 <= 1
 0 <= x(173)#173 <= 1
 0 <= x(174)#174 <= 1
 0 <= x(175)#175 <= 1
 0 <= x(176)#176 <= 1
 0 <= x(177)#177 <= 1
 0 <= x(178)#178 <= 1
 0 <= x(179)#179 <= 1
 0 <= x(180)#180 <= 1
 0 <= x(181)#181 <= 1
 0 <= x(182)#182 <= 1
 0 <= x(183)#183 <= 1
 0 <= x(184)#184 <= 1
 0 <= x(185)#185 <= 1
 0 <= x(186)#186 <= 1
 0 <= x(187)#187 <= 1
 0 <= x(188)#188 <= 1
 0 <= x(189)#189 <= 1
 0 <= x(190)#190 <= 1
 0 <= x(191)#191 <= 1
 0 <= x(192)#192 <= 1
 0 <= x(193)#193 <= 1
 0 <= x(194)#194 <= 1
 0 <= x(195)#195 <= 1
 0 <= x(196)#196 <= 1
 0 <= x(197)#197 <= 1
 0 <= x(198)#198 <= 1
 0 <= x(199)#199 <= 1
 0 <= x(200)#200 <= 1
 0 <= x(201)#201 <= 1
 0 <= x(202)#202 <= 1
 0 <= x(203)#203 <= 1
 0 <= x(204)#204 <= 1
 0 <= x(205)#205 <= 1
 0 <= x(206)#206 <= 1
 0 <= x(207)#207 <= 1
 0 <= x(208)#208 <= 1
 0 <= x(209)#209 <= 1
 0 <= x(210)#210 <= 1
 0 <= x(211)#211 <= 1
 0 <= x(212)#212 <= 1
 0 <= x(213)#213 <= 1
 0 <= x(214)#214 <= 1
 0 <= x(215)#215 <= 1
 0 <= x(216)#216 <= 1
 0 <= x(217)#217 <= 1
 0 <= x(218)#218 <= 1
 0 <= x(219)#219 <= 1
 0 <= x(220)#220 <= 1
 0 <= x(221)#221 <= 1
 0 <= x(222)#222 <= 1
 0 <= x(223)#223 <= 1
 0 <= x(224)#224 <= 1
 0 <= x(225)#225 <= 1
 0 <= x(226)#226 <= 1
 0 <= x(227)#227 <= 1
 0 <= x(228)#228 <= 1
 0 <= x(229)#229 <= 1
 0 <= x(230)#230 <= 1
 0 <= x(231)#231 <= 1
 0 <= x(232)#232 <= 1
 0 <= x(233)#233 <= 1
 0 <= x(234)#234 <= 1
 0 <= x(235)#235 <= 1
 0 <= x(236)#236 <= 1
 0 <= x(237)#237 <= 1
 0 <= x(238)#238 <= 1
 0 <= x(239)#239 <= 1
 0 <= x(240)#240 <= 1
 0 <= x(241)#241 <= 1
 0 <= x(242)#242 <= 1
 0 <= x(243)#243 <= 1
 0 <= x(244)#244 <= 1
 0 <= x(245)#245 <= 1
 0 <= x(246)#246 <= 1
 0 <= x(247)#247 <= 1
 0 <= x(248)#248 <= 1
 0 <= x(249)#249 <= 1
Generals
 x(0)#0  x(1)#1  x(2)#2  x(3)#3  x(4)#4  x(5)#5  x(6)#6  x(7)#7  x(8)#8 
 x(9)#9  x(10)#10  x(11)#11  x(12)#12  x(13)#13  x(14)#14  x(15)#15  x(16)#16 
 x(17)#17  x(18)#18  x(19)#19  x(20)#20  x(21)#21  x(22)#22  x(23)#23 
 x(24)#24  x(25)#25  x(26)#26  x(27)#27  x(28)#28  x(29)#29  x(30)#30 
 x(31)#31  x(32)#32  x(33)#33  x(34)#34  x(35)#35  x(36)#36  x(37)#37 
 x(38)#38  x(39)#39  x(40)#40  x(41)#41  x(42)#42  x(43)#43  x(44)#44 
 x(45)#45  x(46)#46  x(47)#47  x(48)#48  x(49)#49  x(50)#50  x(51)#51 
 x(52)#52  x(53)#53  x(54)#54  x(55)#55  x(56)#56  x(57)#57  x(58)#58 
 x(59)#59  x(60)#60  x(61)#61  x(62)#62  x(63)#63  x(64)#64  x(65)#65 
 x(66)#66  x(67)#67  x(68)#68  x(69)#69  x(70)#70  x(71)#71  x(72)#72 
 x(73)#73  x(74)#74  x(75)#75  x(76)#76  x(77)#77  x(78)#78  x(79)#79 
 x(80)#80  x(81)#81  x(82)#82  x(83)#83  x(84)#84  x(85)#85  x(86)#86 
 x(87)#87  x(88)#88  x(89)#89  x(90)#90  x(91)#91  x(92)#92  x(93)#93 
 x(94)#94  x(95)#95  x(96)#96  x(97)#97  x(98)#98  x(99)#99  x(100)#100 
 x(101)#101  x(102)#102  x(103)#103  x(104)#104  x(105)#105  x(106)#106 
 x(107)#107  x(108)#108  x(109)#109  x(110)#110  x(111)#111  x(112)#112 
 x(113)#113  x(114)#114  x(115)#115  x(116)#116  x(117)#117  x(118)#118 
 x(119)#119  x(120)#120  x(121)#121  x(122)#122  x(123)#123  x(124)#124 
 x(125)#125  x(126)#126  x(127)#127  x(128)#128  x(129)#129  x(130)#130 
 x(131)#131  x(132)#132  x(133)#133  x(134)#134  x(135)#135  x(136)#136 
 x(137)#137  x(138)#138  x(139)#139  x(140)#140  x(141)#141  x(142)#142 
 x(143)#143  x(144)#144  x(145)#145  x(146)#146  x(147)#147  x(148)#148 
 x(149)#149  x(150)#150  x(151)#151  x(152)#152  x(153)#153  x(154)#154 
 x(155)#155  x(156)#156  x(157)#157  x(158)#158  x(159)#159  x(160)#160 
 x(161)#161  x(162)#162  x(163)#163  x(164)#164  x(165)#165  x(166)#166 
 x(167)#167  x(168)#168  x(169)#169  x(170)#170  x(171)#171  x(172)#172 
 x(173)#173  x(174)#174  x(175)#175  x(176)#176  x(177)#177  x(178)#178 
 x(179)#179  x(180)#180  x(181)#181  x(182)#182  x(183)#183  x(184)#184 
 x(185)#185  x(186)#186  x(187)#187  x(188)#188  x(189)#189  x(190)#190 
 x(191)#191  x(192)#192  x(193)#193  x(194)#194  x(195)#195  x(196)#196 
 x(197)#197  x(198)#198  x(199)#199  x(200)#200  x(201)#201  x(202)#202 
 x(203)#203  x(204)#204  x(205)#205  x(206)#206  x(207)#207  x(208)#208 
 x(209)#209  x(210)#210  x(211)#211  x(212)#212  x(213)#213  x(214)#214 
 x(215)#215  x(216)#216  x(217)#217  x(218)#218  x(219)#219  x(220)#220 
 x(221)#221  x(222)#222  x(223)#223  x(224)#224  x(225)#225  x(226)#226 
 x(227)#227  x(228)#228  x(229)#229  x(230)#230  x(231)#231  x(232)#232 
 x(233)#233  x(234)#234  x(235)#235  x(236)#236  x(237)#237  x(238)#238 
 x(239)#239  x(240)#240  x(241)#241  x(242)#242  x(243)#243  x(244)#244 
 x(245)#245  x(246)#246  x(247)#247  x(248)#248  x(249)#249 
End
